p cnf 200 300
1 199 0
1 87 0
1 56 0
2 176 0
2 59 0
2 3 0
3 79 0
3 156 0
4 9 0
4 111 0
4 83 0
5 190 0
5 89 0
5 70 0
6 100 0
6 55 0
6 49 0
7 128 0
7 170 0
7 37 0
8 54 0
8 86 0
8 153 0
9 173 0
9 81 0
10 192 0
10 52 0
10 147 0
11 141 0
11 58 0
11 93 0
12 154 0
12 82 0
12 184 0
13 155 0
13 140 0
13 88 0
14 35 0
14 57 0
14 84 0
15 198 0
15 112 0
15 168 0
16 145 0
16 72 0
16 19 0
17 110 0
17 143 0
17 107 0
18 121 0
18 188 0
18 80 0
19 142 0
19 163 0
20 66 0
20 185 0
20 187 0
21 185 0
21 26 0
21 124 0
22 60 0
22 61 0
22 45 0
23 145 0
23 173 0
23 80 0
24 71 0
24 78 0
24 38 0
25 139 0
25 40 0
25 41 0
26 153 0
26 177 0
27 73 0
27 184 0
27 182 0
28 144 0
28 91 0
28 151 0
29 134 0
29 69 0
29 77 0
30 166 0
30 95 0
30 164 0
31 149 0
31 68 0
31 89 0
32 67 0
32 40 0
32 131 0
33 111 0
33 41 0
33 114 0
34 199 0
34 90 0
34 45 0
35 196 0
35 68 0
36 165 0
36 95 0
36 125 0
37 129 0
37 80 0
38 123 0
38 118 0
39 140 0
39 47 0
39 168 0
40 146 0
41 67 0
42 200 0
42 183 0
42 127 0
43 178 0
43 79 0
43 136 0
44 87 0
44 177 0
44 161 0
45 53 0
46 97 0
46 179 0
46 148 0
47 108 0
47 199 0
48 63 0
48 151 0
48 157 0
49 84 0
49 93 0
50 158 0
50 139 0
50 51 0
51 146 0
51 64 0
52 69 0
52 102 0
53 64 0
53 129 0
54 68 0
54 109 0
55 147 0
55 149 0
56 138 0
56 57 0
57 105 0
58 99 0
58 96 0
59 66 0
59 192 0
60 106 0
60 183 0
61 67 0
61 65 0
62 125 0
62 86 0
62 156 0
63 172 0
63 162 0
64 183 0
65 156 0
65 178 0
66 200 0
69 193 0
70 97 0
70 181 0
71 148 0
71 107 0
72 161 0
72 178 0
73 189 0
73 130 0
74 115 0
74 141 0
74 76 0
75 116 0
75 173 0
75 162 0
76 169 0
76 82 0
77 106 0
77 146 0
78 189 0
78 137 0
79 100 0
81 123 0
81 154 0
82 176 0
83 90 0
83 189 0
84 91 0
85 117 0
85 174 0
85 132 0
86 144 0
87 180 0
88 91 0
88 114 0
89 184 0
90 153 0
92 194 0
92 188 0
92 140 0
93 124 0
94 145 0
94 134 0
94 98 0
95 135 0
96 118 0
96 170 0
97 103 0
98 152 0
98 155 0
99 198 0
99 181 0
100 124 0
101 127 0
101 196 0
101 144 0
102 167 0
102 187 0
103 196 0
103 171 0
104 112 0
104 136 0
104 182 0
105 160 0
105 192 0
106 188 0
107 133 0
108 175 0
108 152 0
109 126 0
109 157 0
110 122 0
110 128 0
111 191 0
112 130 0
113 179 0
113 163 0
113 115 0
114 131 0
115 170 0
116 174 0
116 126 0
117 119 0
117 152 0
118 179 0
119 150 0
119 131 0
120 135 0
120 198 0
120 143 0
121 149 0
121 161 0
122 143 0
122 195 0
123 126 0
125 132 0
127 180 0
128 166 0
129 137 0
130 182 0
132 159 0
133 177 0
133 168 0
134 194 0
135 193 0
136 180 0
137 190 0
138 157 0
138 160 0
139 174 0
141 158 0
142 172 0
142 169 0
147 150 0
148 190 0
150 187 0
151 169 0
154 164 0
155 165 0
158 200 0
159 197 0
159 181 0
160 165 0
162 167 0
163 166 0
164 197 0
167 176 0
171 191 0
171 175 0
172 195 0
175 193 0
185 197 0
186 194 0
186 191 0
186 195 0
g -122